pseudo-Boolean proof version 1.0
f 12;
u 1 ~x101  >= 1;
u 1 ~x102  >= 1;
u 1 ~x103  >= 1;
u 1 ~x104  >= 1;
u 1 ~x105  >= 1;
u 1 ~x106  >= 1;
u 1 ~x107  >= 1;
u 1 ~x108  >= 1;
u 1 ~x109  >= 1;
u 1 ~x110  >= 1;
u 1 ~x111  >= 1;
u 1 x95  >= 1;
u >= 1 ;
c 236